(set-logic QF_LRA)
(declare-fun X0 () Real )
(declare-fun Y0 () Real )
(declare-fun X1 () Real )
(declare-fun Y1 () Real )
(declare-fun X2 () Real )
(declare-fun Y2 () Real )
(declare-fun X3 () Real )
(declare-fun Y3 () Real )
(declare-fun X4 () Real )
(declare-fun Y4 () Real )
(declare-fun X5 () Real )
(declare-fun Y5 () Real )
(declare-fun X6 () Real )
(declare-fun Y6 () Real )
(declare-fun X7 () Real )
(declare-fun Y7 () Real )
(declare-fun X8 () Real )
(declare-fun Y8 () Real )
(declare-fun X9 () Real )
(declare-fun Y9 () Real )
(declare-fun X10 () Real )
(declare-fun Y10 () Real )
(declare-fun X11 () Real )
(declare-fun Y11 () Real )
(declare-fun X12 () Real )
(declare-fun Y12 () Real )
(declare-fun X13 () Real )
(declare-fun Y13 () Real )
(declare-fun X14 () Real )
(declare-fun Y14 () Real )
(declare-fun X15 () Real )
(declare-fun Y15 () Real )
(declare-fun X16 () Real )
(declare-fun Y16 () Real )
(declare-fun X17 () Real )
(declare-fun Y17 () Real )
(declare-fun Z () Real )
(declare-fun k () Real )
(assert (let
(( $goal (>= Z k) ))
(let
((
$phi ( and 
( or ( <= ( + X0 33 ) X1 )  ( <= ( + X1 8 ) X0 )  ( <= ( + Y0 39 ) Y1 )  ( <= ( + Y1 20 ) Y0 )  )
( or ( <= ( + X0 33 ) X2 )  ( <= ( + X2 13 ) X0 )  ( <= ( + Y0 39 ) Y2 )  ( <= ( + Y2 87 ) Y0 )  )
( or ( <= ( + X0 33 ) X3 )  ( <= ( + X3 44 ) X0 )  ( <= ( + Y0 39 ) Y3 )  ( <= ( + Y3 21 ) Y0 )  )
( or ( <= ( + X0 33 ) X4 )  ( <= ( + X4 82 ) X0 )  ( <= ( + Y0 39 ) Y4 )  ( <= ( + Y4 25 ) Y0 )  )
( or ( <= ( + X0 33 ) X5 )  ( <= ( + X5 4 ) X0 )  ( <= ( + Y0 39 ) Y5 )  ( <= ( + Y5 25 ) Y0 )  )
( or ( <= ( + X0 33 ) X6 )  ( <= ( + X6 85 ) X0 )  ( <= ( + Y0 39 ) Y6 )  ( <= ( + Y6 31 ) Y0 )  )
( or ( <= ( + X0 33 ) X7 )  ( <= ( + X7 63 ) X0 )  ( <= ( + Y0 39 ) Y7 )  ( <= ( + Y7 81 ) Y0 )  )
( or ( <= ( + X0 33 ) X8 )  ( <= ( + X8 30 ) X0 )  ( <= ( + Y0 39 ) Y8 )  ( <= ( + Y8 52 ) Y0 )  )
( or ( <= ( + X0 33 ) X9 )  ( <= ( + X9 91 ) X0 )  ( <= ( + Y0 39 ) Y9 )  ( <= ( + Y9 21 ) Y0 )  )
( or ( <= ( + X0 33 ) X10 )  ( <= ( + X10 88 ) X0 )  ( <= ( + Y0 39 ) Y10 )  ( <= ( + Y10 69 ) Y0 )  )
( or ( <= ( + X0 33 ) X11 )  ( <= ( + X11 91 ) X0 )  ( <= ( + Y0 39 ) Y11 )  ( <= ( + Y11 96 ) Y0 )  )
( or ( <= ( + X0 33 ) X12 )  ( <= ( + X12 85 ) X0 )  ( <= ( + Y0 39 ) Y12 )  ( <= ( + Y12 19 ) Y0 )  )
( or ( <= ( + X0 33 ) X13 )  ( <= ( + X13 9 ) X0 )  ( <= ( + Y0 39 ) Y13 )  ( <= ( + Y13 1 ) Y0 )  )
( or ( <= ( + X0 33 ) X14 )  ( <= ( + X14 58 ) X0 )  ( <= ( + Y0 39 ) Y14 )  ( <= ( + Y14 56 ) Y0 )  )
( or ( <= ( + X0 33 ) X15 )  ( <= ( + X15 93 ) X0 )  ( <= ( + Y0 39 ) Y15 )  ( <= ( + Y15 84 ) Y0 )  )
( or ( <= ( + X0 33 ) X16 )  ( <= ( + X16 77 ) X0 )  ( <= ( + Y0 39 ) Y16 )  ( <= ( + Y16 96 ) Y0 )  )
( or ( <= ( + X0 33 ) X17 )  ( <= ( + X17 22 ) X0 )  ( <= ( + Y0 39 ) Y17 )  ( <= ( + Y17 89 ) Y0 )  )
( or ( <= ( + X1 8 ) X2 )  ( <= ( + X2 13 ) X1 )  ( <= ( + Y1 20 ) Y2 )  ( <= ( + Y2 87 ) Y1 )  )
( or ( <= ( + X1 8 ) X3 )  ( <= ( + X3 44 ) X1 )  ( <= ( + Y1 20 ) Y3 )  ( <= ( + Y3 21 ) Y1 )  )
( or ( <= ( + X1 8 ) X4 )  ( <= ( + X4 82 ) X1 )  ( <= ( + Y1 20 ) Y4 )  ( <= ( + Y4 25 ) Y1 )  )
( or ( <= ( + X1 8 ) X5 )  ( <= ( + X5 4 ) X1 )  ( <= ( + Y1 20 ) Y5 )  ( <= ( + Y5 25 ) Y1 )  )
( or ( <= ( + X1 8 ) X6 )  ( <= ( + X6 85 ) X1 )  ( <= ( + Y1 20 ) Y6 )  ( <= ( + Y6 31 ) Y1 )  )
( or ( <= ( + X1 8 ) X7 )  ( <= ( + X7 63 ) X1 )  ( <= ( + Y1 20 ) Y7 )  ( <= ( + Y7 81 ) Y1 )  )
( or ( <= ( + X1 8 ) X8 )  ( <= ( + X8 30 ) X1 )  ( <= ( + Y1 20 ) Y8 )  ( <= ( + Y8 52 ) Y1 )  )
( or ( <= ( + X1 8 ) X9 )  ( <= ( + X9 91 ) X1 )  ( <= ( + Y1 20 ) Y9 )  ( <= ( + Y9 21 ) Y1 )  )
( or ( <= ( + X1 8 ) X10 )  ( <= ( + X10 88 ) X1 )  ( <= ( + Y1 20 ) Y10 )  ( <= ( + Y10 69 ) Y1 )  )
( or ( <= ( + X1 8 ) X11 )  ( <= ( + X11 91 ) X1 )  ( <= ( + Y1 20 ) Y11 )  ( <= ( + Y11 96 ) Y1 )  )
( or ( <= ( + X1 8 ) X12 )  ( <= ( + X12 85 ) X1 )  ( <= ( + Y1 20 ) Y12 )  ( <= ( + Y12 19 ) Y1 )  )
( or ( <= ( + X1 8 ) X13 )  ( <= ( + X13 9 ) X1 )  ( <= ( + Y1 20 ) Y13 )  ( <= ( + Y13 1 ) Y1 )  )
( or ( <= ( + X1 8 ) X14 )  ( <= ( + X14 58 ) X1 )  ( <= ( + Y1 20 ) Y14 )  ( <= ( + Y14 56 ) Y1 )  )
( or ( <= ( + X1 8 ) X15 )  ( <= ( + X15 93 ) X1 )  ( <= ( + Y1 20 ) Y15 )  ( <= ( + Y15 84 ) Y1 )  )
( or ( <= ( + X1 8 ) X16 )  ( <= ( + X16 77 ) X1 )  ( <= ( + Y1 20 ) Y16 )  ( <= ( + Y16 96 ) Y1 )  )
( or ( <= ( + X1 8 ) X17 )  ( <= ( + X17 22 ) X1 )  ( <= ( + Y1 20 ) Y17 )  ( <= ( + Y17 89 ) Y1 )  )
( or ( <= ( + X2 13 ) X3 )  ( <= ( + X3 44 ) X2 )  ( <= ( + Y2 87 ) Y3 )  ( <= ( + Y3 21 ) Y2 )  )
( or ( <= ( + X2 13 ) X4 )  ( <= ( + X4 82 ) X2 )  ( <= ( + Y2 87 ) Y4 )  ( <= ( + Y4 25 ) Y2 )  )
( or ( <= ( + X2 13 ) X5 )  ( <= ( + X5 4 ) X2 )  ( <= ( + Y2 87 ) Y5 )  ( <= ( + Y5 25 ) Y2 )  )
( or ( <= ( + X2 13 ) X6 )  ( <= ( + X6 85 ) X2 )  ( <= ( + Y2 87 ) Y6 )  ( <= ( + Y6 31 ) Y2 )  )
( or ( <= ( + X2 13 ) X7 )  ( <= ( + X7 63 ) X2 )  ( <= ( + Y2 87 ) Y7 )  ( <= ( + Y7 81 ) Y2 )  )
( or ( <= ( + X2 13 ) X8 )  ( <= ( + X8 30 ) X2 )  ( <= ( + Y2 87 ) Y8 )  ( <= ( + Y8 52 ) Y2 )  )
( or ( <= ( + X2 13 ) X9 )  ( <= ( + X9 91 ) X2 )  ( <= ( + Y2 87 ) Y9 )  ( <= ( + Y9 21 ) Y2 )  )
( or ( <= ( + X2 13 ) X10 )  ( <= ( + X10 88 ) X2 )  ( <= ( + Y2 87 ) Y10 )  ( <= ( + Y10 69 ) Y2 )  )
( or ( <= ( + X2 13 ) X11 )  ( <= ( + X11 91 ) X2 )  ( <= ( + Y2 87 ) Y11 )  ( <= ( + Y11 96 ) Y2 )  )
( or ( <= ( + X2 13 ) X12 )  ( <= ( + X12 85 ) X2 )  ( <= ( + Y2 87 ) Y12 )  ( <= ( + Y12 19 ) Y2 )  )
( or ( <= ( + X2 13 ) X13 )  ( <= ( + X13 9 ) X2 )  ( <= ( + Y2 87 ) Y13 )  ( <= ( + Y13 1 ) Y2 )  )
( or ( <= ( + X2 13 ) X14 )  ( <= ( + X14 58 ) X2 )  ( <= ( + Y2 87 ) Y14 )  ( <= ( + Y14 56 ) Y2 )  )
( or ( <= ( + X2 13 ) X15 )  ( <= ( + X15 93 ) X2 )  ( <= ( + Y2 87 ) Y15 )  ( <= ( + Y15 84 ) Y2 )  )
( or ( <= ( + X2 13 ) X16 )  ( <= ( + X16 77 ) X2 )  ( <= ( + Y2 87 ) Y16 )  ( <= ( + Y16 96 ) Y2 )  )
( or ( <= ( + X2 13 ) X17 )  ( <= ( + X17 22 ) X2 )  ( <= ( + Y2 87 ) Y17 )  ( <= ( + Y17 89 ) Y2 )  )
( or ( <= ( + X3 44 ) X4 )  ( <= ( + X4 82 ) X3 )  ( <= ( + Y3 21 ) Y4 )  ( <= ( + Y4 25 ) Y3 )  )
( or ( <= ( + X3 44 ) X5 )  ( <= ( + X5 4 ) X3 )  ( <= ( + Y3 21 ) Y5 )  ( <= ( + Y5 25 ) Y3 )  )
( or ( <= ( + X3 44 ) X6 )  ( <= ( + X6 85 ) X3 )  ( <= ( + Y3 21 ) Y6 )  ( <= ( + Y6 31 ) Y3 )  )
( or ( <= ( + X3 44 ) X7 )  ( <= ( + X7 63 ) X3 )  ( <= ( + Y3 21 ) Y7 )  ( <= ( + Y7 81 ) Y3 )  )
( or ( <= ( + X3 44 ) X8 )  ( <= ( + X8 30 ) X3 )  ( <= ( + Y3 21 ) Y8 )  ( <= ( + Y8 52 ) Y3 )  )
( or ( <= ( + X3 44 ) X9 )  ( <= ( + X9 91 ) X3 )  ( <= ( + Y3 21 ) Y9 )  ( <= ( + Y9 21 ) Y3 )  )
( or ( <= ( + X3 44 ) X10 )  ( <= ( + X10 88 ) X3 )  ( <= ( + Y3 21 ) Y10 )  ( <= ( + Y10 69 ) Y3 )  )
( or ( <= ( + X3 44 ) X11 )  ( <= ( + X11 91 ) X3 )  ( <= ( + Y3 21 ) Y11 )  ( <= ( + Y11 96 ) Y3 )  )
( or ( <= ( + X3 44 ) X12 )  ( <= ( + X12 85 ) X3 )  ( <= ( + Y3 21 ) Y12 )  ( <= ( + Y12 19 ) Y3 )  )
( or ( <= ( + X3 44 ) X13 )  ( <= ( + X13 9 ) X3 )  ( <= ( + Y3 21 ) Y13 )  ( <= ( + Y13 1 ) Y3 )  )
( or ( <= ( + X3 44 ) X14 )  ( <= ( + X14 58 ) X3 )  ( <= ( + Y3 21 ) Y14 )  ( <= ( + Y14 56 ) Y3 )  )
( or ( <= ( + X3 44 ) X15 )  ( <= ( + X15 93 ) X3 )  ( <= ( + Y3 21 ) Y15 )  ( <= ( + Y15 84 ) Y3 )  )
( or ( <= ( + X3 44 ) X16 )  ( <= ( + X16 77 ) X3 )  ( <= ( + Y3 21 ) Y16 )  ( <= ( + Y16 96 ) Y3 )  )
( or ( <= ( + X3 44 ) X17 )  ( <= ( + X17 22 ) X3 )  ( <= ( + Y3 21 ) Y17 )  ( <= ( + Y17 89 ) Y3 )  )
( or ( <= ( + X4 82 ) X5 )  ( <= ( + X5 4 ) X4 )  ( <= ( + Y4 25 ) Y5 )  ( <= ( + Y5 25 ) Y4 )  )
( or ( <= ( + X4 82 ) X6 )  ( <= ( + X6 85 ) X4 )  ( <= ( + Y4 25 ) Y6 )  ( <= ( + Y6 31 ) Y4 )  )
( or ( <= ( + X4 82 ) X7 )  ( <= ( + X7 63 ) X4 )  ( <= ( + Y4 25 ) Y7 )  ( <= ( + Y7 81 ) Y4 )  )
( or ( <= ( + X4 82 ) X8 )  ( <= ( + X8 30 ) X4 )  ( <= ( + Y4 25 ) Y8 )  ( <= ( + Y8 52 ) Y4 )  )
( or ( <= ( + X4 82 ) X9 )  ( <= ( + X9 91 ) X4 )  ( <= ( + Y4 25 ) Y9 )  ( <= ( + Y9 21 ) Y4 )  )
( or ( <= ( + X4 82 ) X10 )  ( <= ( + X10 88 ) X4 )  ( <= ( + Y4 25 ) Y10 )  ( <= ( + Y10 69 ) Y4 )  )
( or ( <= ( + X4 82 ) X11 )  ( <= ( + X11 91 ) X4 )  ( <= ( + Y4 25 ) Y11 )  ( <= ( + Y11 96 ) Y4 )  )
( or ( <= ( + X4 82 ) X12 )  ( <= ( + X12 85 ) X4 )  ( <= ( + Y4 25 ) Y12 )  ( <= ( + Y12 19 ) Y4 )  )
( or ( <= ( + X4 82 ) X13 )  ( <= ( + X13 9 ) X4 )  ( <= ( + Y4 25 ) Y13 )  ( <= ( + Y13 1 ) Y4 )  )
( or ( <= ( + X4 82 ) X14 )  ( <= ( + X14 58 ) X4 )  ( <= ( + Y4 25 ) Y14 )  ( <= ( + Y14 56 ) Y4 )  )
( or ( <= ( + X4 82 ) X15 )  ( <= ( + X15 93 ) X4 )  ( <= ( + Y4 25 ) Y15 )  ( <= ( + Y15 84 ) Y4 )  )
( or ( <= ( + X4 82 ) X16 )  ( <= ( + X16 77 ) X4 )  ( <= ( + Y4 25 ) Y16 )  ( <= ( + Y16 96 ) Y4 )  )
( or ( <= ( + X4 82 ) X17 )  ( <= ( + X17 22 ) X4 )  ( <= ( + Y4 25 ) Y17 )  ( <= ( + Y17 89 ) Y4 )  )
( or ( <= ( + X5 4 ) X6 )  ( <= ( + X6 85 ) X5 )  ( <= ( + Y5 25 ) Y6 )  ( <= ( + Y6 31 ) Y5 )  )
( or ( <= ( + X5 4 ) X7 )  ( <= ( + X7 63 ) X5 )  ( <= ( + Y5 25 ) Y7 )  ( <= ( + Y7 81 ) Y5 )  )
( or ( <= ( + X5 4 ) X8 )  ( <= ( + X8 30 ) X5 )  ( <= ( + Y5 25 ) Y8 )  ( <= ( + Y8 52 ) Y5 )  )
( or ( <= ( + X5 4 ) X9 )  ( <= ( + X9 91 ) X5 )  ( <= ( + Y5 25 ) Y9 )  ( <= ( + Y9 21 ) Y5 )  )
( or ( <= ( + X5 4 ) X10 )  ( <= ( + X10 88 ) X5 )  ( <= ( + Y5 25 ) Y10 )  ( <= ( + Y10 69 ) Y5 )  )
( or ( <= ( + X5 4 ) X11 )  ( <= ( + X11 91 ) X5 )  ( <= ( + Y5 25 ) Y11 )  ( <= ( + Y11 96 ) Y5 )  )
( or ( <= ( + X5 4 ) X12 )  ( <= ( + X12 85 ) X5 )  ( <= ( + Y5 25 ) Y12 )  ( <= ( + Y12 19 ) Y5 )  )
( or ( <= ( + X5 4 ) X13 )  ( <= ( + X13 9 ) X5 )  ( <= ( + Y5 25 ) Y13 )  ( <= ( + Y13 1 ) Y5 )  )
( or ( <= ( + X5 4 ) X14 )  ( <= ( + X14 58 ) X5 )  ( <= ( + Y5 25 ) Y14 )  ( <= ( + Y14 56 ) Y5 )  )
( or ( <= ( + X5 4 ) X15 )  ( <= ( + X15 93 ) X5 )  ( <= ( + Y5 25 ) Y15 )  ( <= ( + Y15 84 ) Y5 )  )
( or ( <= ( + X5 4 ) X16 )  ( <= ( + X16 77 ) X5 )  ( <= ( + Y5 25 ) Y16 )  ( <= ( + Y16 96 ) Y5 )  )
( or ( <= ( + X5 4 ) X17 )  ( <= ( + X17 22 ) X5 )  ( <= ( + Y5 25 ) Y17 )  ( <= ( + Y17 89 ) Y5 )  )
( or ( <= ( + X6 85 ) X7 )  ( <= ( + X7 63 ) X6 )  ( <= ( + Y6 31 ) Y7 )  ( <= ( + Y7 81 ) Y6 )  )
( or ( <= ( + X6 85 ) X8 )  ( <= ( + X8 30 ) X6 )  ( <= ( + Y6 31 ) Y8 )  ( <= ( + Y8 52 ) Y6 )  )
( or ( <= ( + X6 85 ) X9 )  ( <= ( + X9 91 ) X6 )  ( <= ( + Y6 31 ) Y9 )  ( <= ( + Y9 21 ) Y6 )  )
( or ( <= ( + X6 85 ) X10 )  ( <= ( + X10 88 ) X6 )  ( <= ( + Y6 31 ) Y10 )  ( <= ( + Y10 69 ) Y6 )  )
( or ( <= ( + X6 85 ) X11 )  ( <= ( + X11 91 ) X6 )  ( <= ( + Y6 31 ) Y11 )  ( <= ( + Y11 96 ) Y6 )  )
( or ( <= ( + X6 85 ) X12 )  ( <= ( + X12 85 ) X6 )  ( <= ( + Y6 31 ) Y12 )  ( <= ( + Y12 19 ) Y6 )  )
( or ( <= ( + X6 85 ) X13 )  ( <= ( + X13 9 ) X6 )  ( <= ( + Y6 31 ) Y13 )  ( <= ( + Y13 1 ) Y6 )  )
( or ( <= ( + X6 85 ) X14 )  ( <= ( + X14 58 ) X6 )  ( <= ( + Y6 31 ) Y14 )  ( <= ( + Y14 56 ) Y6 )  )
( or ( <= ( + X6 85 ) X15 )  ( <= ( + X15 93 ) X6 )  ( <= ( + Y6 31 ) Y15 )  ( <= ( + Y15 84 ) Y6 )  )
( or ( <= ( + X6 85 ) X16 )  ( <= ( + X16 77 ) X6 )  ( <= ( + Y6 31 ) Y16 )  ( <= ( + Y16 96 ) Y6 )  )
( or ( <= ( + X6 85 ) X17 )  ( <= ( + X17 22 ) X6 )  ( <= ( + Y6 31 ) Y17 )  ( <= ( + Y17 89 ) Y6 )  )
( or ( <= ( + X7 63 ) X8 )  ( <= ( + X8 30 ) X7 )  ( <= ( + Y7 81 ) Y8 )  ( <= ( + Y8 52 ) Y7 )  )
( or ( <= ( + X7 63 ) X9 )  ( <= ( + X9 91 ) X7 )  ( <= ( + Y7 81 ) Y9 )  ( <= ( + Y9 21 ) Y7 )  )
( or ( <= ( + X7 63 ) X10 )  ( <= ( + X10 88 ) X7 )  ( <= ( + Y7 81 ) Y10 )  ( <= ( + Y10 69 ) Y7 )  )
( or ( <= ( + X7 63 ) X11 )  ( <= ( + X11 91 ) X7 )  ( <= ( + Y7 81 ) Y11 )  ( <= ( + Y11 96 ) Y7 )  )
( or ( <= ( + X7 63 ) X12 )  ( <= ( + X12 85 ) X7 )  ( <= ( + Y7 81 ) Y12 )  ( <= ( + Y12 19 ) Y7 )  )
( or ( <= ( + X7 63 ) X13 )  ( <= ( + X13 9 ) X7 )  ( <= ( + Y7 81 ) Y13 )  ( <= ( + Y13 1 ) Y7 )  )
( or ( <= ( + X7 63 ) X14 )  ( <= ( + X14 58 ) X7 )  ( <= ( + Y7 81 ) Y14 )  ( <= ( + Y14 56 ) Y7 )  )
( or ( <= ( + X7 63 ) X15 )  ( <= ( + X15 93 ) X7 )  ( <= ( + Y7 81 ) Y15 )  ( <= ( + Y15 84 ) Y7 )  )
( or ( <= ( + X7 63 ) X16 )  ( <= ( + X16 77 ) X7 )  ( <= ( + Y7 81 ) Y16 )  ( <= ( + Y16 96 ) Y7 )  )
( or ( <= ( + X7 63 ) X17 )  ( <= ( + X17 22 ) X7 )  ( <= ( + Y7 81 ) Y17 )  ( <= ( + Y17 89 ) Y7 )  )
( or ( <= ( + X8 30 ) X9 )  ( <= ( + X9 91 ) X8 )  ( <= ( + Y8 52 ) Y9 )  ( <= ( + Y9 21 ) Y8 )  )
( or ( <= ( + X8 30 ) X10 )  ( <= ( + X10 88 ) X8 )  ( <= ( + Y8 52 ) Y10 )  ( <= ( + Y10 69 ) Y8 )  )
( or ( <= ( + X8 30 ) X11 )  ( <= ( + X11 91 ) X8 )  ( <= ( + Y8 52 ) Y11 )  ( <= ( + Y11 96 ) Y8 )  )
( or ( <= ( + X8 30 ) X12 )  ( <= ( + X12 85 ) X8 )  ( <= ( + Y8 52 ) Y12 )  ( <= ( + Y12 19 ) Y8 )  )
( or ( <= ( + X8 30 ) X13 )  ( <= ( + X13 9 ) X8 )  ( <= ( + Y8 52 ) Y13 )  ( <= ( + Y13 1 ) Y8 )  )
( or ( <= ( + X8 30 ) X14 )  ( <= ( + X14 58 ) X8 )  ( <= ( + Y8 52 ) Y14 )  ( <= ( + Y14 56 ) Y8 )  )
( or ( <= ( + X8 30 ) X15 )  ( <= ( + X15 93 ) X8 )  ( <= ( + Y8 52 ) Y15 )  ( <= ( + Y15 84 ) Y8 )  )
( or ( <= ( + X8 30 ) X16 )  ( <= ( + X16 77 ) X8 )  ( <= ( + Y8 52 ) Y16 )  ( <= ( + Y16 96 ) Y8 )  )
( or ( <= ( + X8 30 ) X17 )  ( <= ( + X17 22 ) X8 )  ( <= ( + Y8 52 ) Y17 )  ( <= ( + Y17 89 ) Y8 )  )
( or ( <= ( + X9 91 ) X10 )  ( <= ( + X10 88 ) X9 )  ( <= ( + Y9 21 ) Y10 )  ( <= ( + Y10 69 ) Y9 )  )
( or ( <= ( + X9 91 ) X11 )  ( <= ( + X11 91 ) X9 )  ( <= ( + Y9 21 ) Y11 )  ( <= ( + Y11 96 ) Y9 )  )
( or ( <= ( + X9 91 ) X12 )  ( <= ( + X12 85 ) X9 )  ( <= ( + Y9 21 ) Y12 )  ( <= ( + Y12 19 ) Y9 )  )
( or ( <= ( + X9 91 ) X13 )  ( <= ( + X13 9 ) X9 )  ( <= ( + Y9 21 ) Y13 )  ( <= ( + Y13 1 ) Y9 )  )
( or ( <= ( + X9 91 ) X14 )  ( <= ( + X14 58 ) X9 )  ( <= ( + Y9 21 ) Y14 )  ( <= ( + Y14 56 ) Y9 )  )
( or ( <= ( + X9 91 ) X15 )  ( <= ( + X15 93 ) X9 )  ( <= ( + Y9 21 ) Y15 )  ( <= ( + Y15 84 ) Y9 )  )
( or ( <= ( + X9 91 ) X16 )  ( <= ( + X16 77 ) X9 )  ( <= ( + Y9 21 ) Y16 )  ( <= ( + Y16 96 ) Y9 )  )
( or ( <= ( + X9 91 ) X17 )  ( <= ( + X17 22 ) X9 )  ( <= ( + Y9 21 ) Y17 )  ( <= ( + Y17 89 ) Y9 )  )
( or ( <= ( + X10 88 ) X11 )  ( <= ( + X11 91 ) X10 )  ( <= ( + Y10 69 ) Y11 )  ( <= ( + Y11 96 ) Y10 )  )
( or ( <= ( + X10 88 ) X12 )  ( <= ( + X12 85 ) X10 )  ( <= ( + Y10 69 ) Y12 )  ( <= ( + Y12 19 ) Y10 )  )
( or ( <= ( + X10 88 ) X13 )  ( <= ( + X13 9 ) X10 )  ( <= ( + Y10 69 ) Y13 )  ( <= ( + Y13 1 ) Y10 )  )
( or ( <= ( + X10 88 ) X14 )  ( <= ( + X14 58 ) X10 )  ( <= ( + Y10 69 ) Y14 )  ( <= ( + Y14 56 ) Y10 )  )
( or ( <= ( + X10 88 ) X15 )  ( <= ( + X15 93 ) X10 )  ( <= ( + Y10 69 ) Y15 )  ( <= ( + Y15 84 ) Y10 )  )
( or ( <= ( + X10 88 ) X16 )  ( <= ( + X16 77 ) X10 )  ( <= ( + Y10 69 ) Y16 )  ( <= ( + Y16 96 ) Y10 )  )
( or ( <= ( + X10 88 ) X17 )  ( <= ( + X17 22 ) X10 )  ( <= ( + Y10 69 ) Y17 )  ( <= ( + Y17 89 ) Y10 )  )
( or ( <= ( + X11 91 ) X12 )  ( <= ( + X12 85 ) X11 )  ( <= ( + Y11 96 ) Y12 )  ( <= ( + Y12 19 ) Y11 )  )
( or ( <= ( + X11 91 ) X13 )  ( <= ( + X13 9 ) X11 )  ( <= ( + Y11 96 ) Y13 )  ( <= ( + Y13 1 ) Y11 )  )
( or ( <= ( + X11 91 ) X14 )  ( <= ( + X14 58 ) X11 )  ( <= ( + Y11 96 ) Y14 )  ( <= ( + Y14 56 ) Y11 )  )
( or ( <= ( + X11 91 ) X15 )  ( <= ( + X15 93 ) X11 )  ( <= ( + Y11 96 ) Y15 )  ( <= ( + Y15 84 ) Y11 )  )
( or ( <= ( + X11 91 ) X16 )  ( <= ( + X16 77 ) X11 )  ( <= ( + Y11 96 ) Y16 )  ( <= ( + Y16 96 ) Y11 )  )
( or ( <= ( + X11 91 ) X17 )  ( <= ( + X17 22 ) X11 )  ( <= ( + Y11 96 ) Y17 )  ( <= ( + Y17 89 ) Y11 )  )
( or ( <= ( + X12 85 ) X13 )  ( <= ( + X13 9 ) X12 )  ( <= ( + Y12 19 ) Y13 )  ( <= ( + Y13 1 ) Y12 )  )
( or ( <= ( + X12 85 ) X14 )  ( <= ( + X14 58 ) X12 )  ( <= ( + Y12 19 ) Y14 )  ( <= ( + Y14 56 ) Y12 )  )
( or ( <= ( + X12 85 ) X15 )  ( <= ( + X15 93 ) X12 )  ( <= ( + Y12 19 ) Y15 )  ( <= ( + Y15 84 ) Y12 )  )
( or ( <= ( + X12 85 ) X16 )  ( <= ( + X16 77 ) X12 )  ( <= ( + Y12 19 ) Y16 )  ( <= ( + Y16 96 ) Y12 )  )
( or ( <= ( + X12 85 ) X17 )  ( <= ( + X17 22 ) X12 )  ( <= ( + Y12 19 ) Y17 )  ( <= ( + Y17 89 ) Y12 )  )
( or ( <= ( + X13 9 ) X14 )  ( <= ( + X14 58 ) X13 )  ( <= ( + Y13 1 ) Y14 )  ( <= ( + Y14 56 ) Y13 )  )
( or ( <= ( + X13 9 ) X15 )  ( <= ( + X15 93 ) X13 )  ( <= ( + Y13 1 ) Y15 )  ( <= ( + Y15 84 ) Y13 )  )
( or ( <= ( + X13 9 ) X16 )  ( <= ( + X16 77 ) X13 )  ( <= ( + Y13 1 ) Y16 )  ( <= ( + Y16 96 ) Y13 )  )
( or ( <= ( + X13 9 ) X17 )  ( <= ( + X17 22 ) X13 )  ( <= ( + Y13 1 ) Y17 )  ( <= ( + Y17 89 ) Y13 )  )
( or ( <= ( + X14 58 ) X15 )  ( <= ( + X15 93 ) X14 )  ( <= ( + Y14 56 ) Y15 )  ( <= ( + Y15 84 ) Y14 )  )
( or ( <= ( + X14 58 ) X16 )  ( <= ( + X16 77 ) X14 )  ( <= ( + Y14 56 ) Y16 )  ( <= ( + Y16 96 ) Y14 )  )
( or ( <= ( + X14 58 ) X17 )  ( <= ( + X17 22 ) X14 )  ( <= ( + Y14 56 ) Y17 )  ( <= ( + Y17 89 ) Y14 )  )
( or ( <= ( + X15 93 ) X16 )  ( <= ( + X16 77 ) X15 )  ( <= ( + Y15 84 ) Y16 )  ( <= ( + Y16 96 ) Y15 )  )
( or ( <= ( + X15 93 ) X17 )  ( <= ( + X17 22 ) X15 )  ( <= ( + Y15 84 ) Y17 )  ( <= ( + Y17 89 ) Y15 )  )
( or ( <= ( + X16 77 ) X17 )  ( <= ( + X17 22 ) X16 )  ( <= ( + Y16 96 ) Y17 )  ( <= ( + Y17 89 ) Y16 )  )
( >= X0 0)
( <= ( + X0 33) Z)
( >= Y0 0)
( <= ( + Y0 39 ) 100)
( >= X1 0)
( <= ( + X1 8) Z)
( >= Y1 0)
( <= ( + Y1 20 ) 100)
( >= X2 0)
( <= ( + X2 13) Z)
( >= Y2 0)
( <= ( + Y2 87 ) 100)
( >= X3 0)
( <= ( + X3 44) Z)
( >= Y3 0)
( <= ( + Y3 21 ) 100)
( >= X4 0)
( <= ( + X4 82) Z)
( >= Y4 0)
( <= ( + Y4 25 ) 100)
( >= X5 0)
( <= ( + X5 4) Z)
( >= Y5 0)
( <= ( + Y5 25 ) 100)
( >= X6 0)
( <= ( + X6 85) Z)
( >= Y6 0)
( <= ( + Y6 31 ) 100)
( >= X7 0)
( <= ( + X7 63) Z)
( >= Y7 0)
( <= ( + Y7 81 ) 100)
( >= X8 0)
( <= ( + X8 30) Z)
( >= Y8 0)
( <= ( + Y8 52 ) 100)
( >= X9 0)
( <= ( + X9 91) Z)
( >= Y9 0)
( <= ( + Y9 21 ) 100)
( >= X10 0)
( <= ( + X10 88) Z)
( >= Y10 0)
( <= ( + Y10 69 ) 100)
( >= X11 0)
( <= ( + X11 91) Z)
( >= Y11 0)
( <= ( + Y11 96 ) 100)
( >= X12 0)
( <= ( + X12 85) Z)
( >= Y12 0)
( <= ( + Y12 19 ) 100)
( >= X13 0)
( <= ( + X13 9) Z)
( >= Y13 0)
( <= ( + Y13 1 ) 100)
( >= X14 0)
( <= ( + X14 58) Z)
( >= Y14 0)
( <= ( + Y14 56 ) 100)
( >= X15 0)
( <= ( + X15 93) Z)
( >= Y15 0)
( <= ( + Y15 84 ) 100)
( >= X16 0)
( <= ( + X16 77) Z)
( >= Y16 0)
( <= ( + Y16 96 ) 100)
( >= X17 0)
( <= ( + X17 22) Z)
( >= Y17 0)
( <= ( + Y17 89 ) 100)
) )
)(=> $phi $goal))))